(set-info :status unsat)
(declare-const symbol_216 (_ BitVec 32))
(declare-const symbol_140 (_ BitVec 32))
(declare-const symbol_381 (_ BitVec 32))
(declare-const symbol_393 (_ BitVec 32))
(declare-const symbol_438 (_ BitVec 32))
(declare-const symbol_472 (_ BitVec 32))
(declare-const symbol_222 (_ BitVec 32))
(declare-const symbol_25 (_ BitVec 32))
(declare-const symbol_568 (_ BitVec 32))
(declare-const symbol_562 (_ BitVec 32))
(declare-const symbol_605 (_ BitVec 32))
(declare-const symbol_484 (_ BitVec 32))
(declare-const symbol_125 (_ BitVec 32))
(declare-const symbol_513 (_ BitVec 32))
(declare-const symbol_366 (_ BitVec 32))
(declare-const symbol_458 (_ BitVec 32))
(declare-const symbol_454 (_ BitVec 32))
(declare-const symbol_338 (_ BitVec 32))
(declare-const symbol_73 (_ BitVec 32))
(declare-const symbol_91 (_ BitVec 32))
(declare-const symbol_198 (_ BitVec 32))
(declare-const symbol_58 (_ BitVec 32))
(declare-const symbol_296 (_ BitVec 32))
(declare-const symbol_152 (_ BitVec 32))
(declare-const symbol_115 (_ BitVec 32))
(declare-const symbol_723 (_ BitVec 32))
(declare-const symbol_247 (_ BitVec 32))
(declare-const symbol_224 (_ BitVec 32))
(declare-const symbol_178 (_ BitVec 32))
(declare-const symbol_54 (_ BitVec 32))
(declare-const symbol_272 (_ BitVec 32))
(declare-const symbol_652 (_ BitVec 32))
(declare-const symbol_413 (_ BitVec 32))
(declare-const symbol_131 (_ BitVec 32))
(declare-const symbol_705 (_ BitVec 32))
(declare-const symbol_620 (_ BitVec 32))
(declare-const symbol_446 (_ BitVec 32))
(declare-const symbol_254 (_ BitVec 32))
(declare-const symbol_478 (_ BitVec 32))
(declare-const symbol_84 (_ BitVec 32))
(declare-const symbol_727 (_ BitVec 32))
(declare-const symbol_662 (_ BitVec 32))
(declare-const symbol_241 (_ BitVec 32))
(declare-const symbol_593 (_ BitVec 32))
(declare-const symbol_554 (_ BitVec 32))
(declare-const symbol_29 (_ BitVec 32))
(declare-const symbol_23 (_ BitVec 32))
(declare-const symbol_729 (_ BitVec 32))
(declare-const symbol_656 (_ BitVec 32))
(declare-const symbol_560 (_ BitVec 32))
(declare-const symbol_103 (_ BitVec 32))
(declare-const symbol_550 (_ BitVec 32))
(declare-const symbol_377 (_ BitVec 32))
(declare-const symbol_231 (_ BitVec 32))
(declare-const symbol_407 (_ BitVec 32))
(declare-const symbol_52 (_ BitVec 32))
(declare-const symbol_16 (_ BitVec 32))
(declare-const symbol_11 (_ BitVec 32))
(declare-const symbol_737 (_ BitVec 32))
(declare-const symbol_267 (_ BitVec 32))
(declare-const symbol_265 (_ BitVec 32))
(declare-const symbol_95 (_ BitVec 32))
(declare-const symbol_448 (_ BitVec 32))
(declare-const symbol_428 (_ BitVec 32))
(declare-const symbol_373 (_ BitVec 32))
(declare-const symbol_1 (_ BitVec 32))
(declare-const symbol_719 (_ BitVec 32))
(declare-const symbol_264 (_ BitVec 32))
(declare-const symbol_682 (_ BitVec 32))
(declare-const symbol_281 (_ BitVec 32))
(declare-const symbol_357 (_ BitVec 32))
(declare-const symbol_176 (_ BitVec 32))
(declare-const symbol_715 (_ BitVec 32))
(declare-const symbol_399 (_ BitVec 32))
(declare-const symbol_62 (_ BitVec 32))
(declare-const symbol_470 (_ BitVec 32))
(declare-const symbol_566 (_ BitVec 32))
(declare-const symbol_507 (_ BitVec 32))
(declare-const symbol_274 (_ BitVec 32))
(declare-const symbol_474 (_ BitVec 32))
(declare-const symbol_269 (_ BitVec 32))
(declare-const symbol_66 (_ BitVec 32))
(declare-const symbol_235 (_ BitVec 32))
(declare-const symbol_180 (_ BitVec 32))
(declare-const symbol_136 (_ BitVec 32))
(declare-const symbol_316 (_ BitVec 32))
(declare-const symbol_299 (_ BitVec 32))
(declare-const symbol_326 (_ BitVec 32))
(declare-const symbol_101 (_ BitVec 32))
(declare-const symbol_585 (_ BitVec 32))
(declare-const symbol_277 (_ BitVec 32))
(declare-const symbol_154 (_ BitVec 32))
(declare-const symbol_86 (_ BitVec 32))
(declare-const symbol_688 (_ BitVec 32))
(declare-const symbol_415 (_ BitVec 32))
(declare-const symbol_340 (_ BitVec 32))
(declare-const symbol_194 (_ BitVec 32))
(declare-const symbol_444 (_ BitVec 32))
(declare-const symbol_646 (_ BitVec 32))
(declare-const symbol_490 (_ BitVec 32))
(declare-const symbol_426 (_ BitVec 32))
(declare-const symbol_210 (_ BitVec 32))
(declare-const symbol_395 (_ BitVec 32))
(declare-const symbol_70 (_ BitVec 32))
(declare-const symbol_5 (_ BitVec 32))
(declare-const symbol_203 (_ BitVec 32))
(declare-const symbol_353 (_ BitVec 32))
(declare-const symbol_462 (_ BitVec 32))
(declare-const symbol_162 (_ BitVec 32))
(declare-const symbol_597 (_ BitVec 32))
(declare-const symbol_347 (_ BitVec 32))
(declare-const symbol_304 (_ BitVec 32))
(declare-const symbol_692 (_ BitVec 32))
(declare-const symbol_227 (_ BitVec 32))
(declare-const symbol_134 (_ BitVec 32))
(declare-const symbol_616 (_ BitVec 32))
(declare-const symbol_578 (_ BitVec 32))
(declare-const symbol_570 (_ BitVec 32))
(declare-const symbol_725 (_ BitVec 32))
(declare-const symbol_109 (_ BitVec 32))
(declare-const symbol_731 (_ BitVec 32))
(declare-const symbol_314 (_ BitVec 32))
(declare-const symbol_349 (_ BitVec 32))
(declare-const symbol_49 (_ BitVec 32))
(declare-const symbol_302 (_ BitVec 32))
(declare-const symbol_632 (_ BitVec 32))
(declare-const symbol_482 (_ BitVec 32))
(declare-const symbol_480 (_ BitVec 32))
(declare-const symbol_468 (_ BitVec 32))
(declare-const symbol_538 (_ BitVec 32))
(declare-const symbol_499 (_ BitVec 32))
(declare-const symbol_486 (_ BitVec 32))
(declare-const symbol_436 (_ BitVec 32))
(declare-const symbol_220 (_ BitVec 32))
(declare-const symbol_524 (_ BitVec 32))
(declare-const symbol_424 (_ BitVec 32))
(declare-const symbol_310 (_ BitVec 32))
(declare-const symbol_666 (_ BitVec 32))
(declare-const symbol_237 (_ BitVec 32))
(declare-const symbol_505 (_ BitVec 32))
(declare-const symbol_387 (_ BitVec 32))
(declare-const symbol_530 (_ BitVec 32))
(declare-const symbol_624 (_ BitVec 32))
(declare-const symbol_139 (_ BitVec 32))
(declare-const symbol_697 (_ BitVec 32))
(declare-const symbol_9 (_ BitVec 32))
(declare-const symbol_599 (_ BitVec 32))
(declare-const symbol_583 (_ BitVec 32))
(declare-const symbol_368 (_ BitVec 32))
(declare-const symbol_544 (_ BitVec 32))
(declare-const symbol_306 (_ BitVec 32))
(declare-const symbol_192 (_ BitVec 32))
(declare-const symbol_371 (_ BitVec 32))
(declare-const symbol_640 (_ BitVec 32))
(declare-const symbol_285 (_ BitVec 32))
(declare-const symbol_3 (_ BitVec 32))
(declare-const symbol_636 (_ BitVec 32))
(declare-const symbol_123 (_ BitVec 32))
(declare-const symbol_196 (_ BitVec 32))
(declare-const symbol_733 (_ BitVec 32))
(declare-const symbol_127 (_ BitVec 32))
(declare-const symbol_648 (_ BitVec 32))
(declare-const symbol_546 (_ BitVec 32))
(declare-const symbol_450 (_ BitVec 32))
(declare-const symbol_97 (_ BitVec 32))
(declare-const symbol_591 (_ BitVec 32))
(declare-const symbol_258 (_ BitVec 32))
(declare-const symbol_576 (_ BitVec 32))
(declare-const symbol_170 (_ BitVec 32))
(declare-const symbol_111 (_ BitVec 32))
(declare-const symbol_88 (_ BitVec 32))
(declare-const symbol_324 (_ BitVec 32))
(declare-const symbol_174 (_ BitVec 32))
(declare-const symbol_684 (_ BitVec 32))
(declare-const symbol_142 (_ BitVec 32))
(declare-const symbol_89 (_ BitVec 32))
(declare-const symbol_286 (_ BitVec 32))
(declare-const symbol_13 (_ BitVec 32))
(declare-const symbol_676 (_ BitVec 32))
(declare-const symbol_548 (_ BitVec 32))
(declare-const symbol_391 (_ BitVec 32))
(declare-const symbol_442 (_ BitVec 32))
(declare-const symbol_148 (_ BitVec 32))
(declare-const symbol_129 (_ BitVec 32))
(declare-const symbol_201 (_ BitVec 32))
(declare-const symbol_603 (_ BitVec 32))
(declare-const symbol_71 (_ BitVec 32))
(declare-const symbol_721 (_ BitVec 32))
(declare-const symbol_312 (_ BitVec 32))
(declare-const symbol_707 (_ BitVec 32))
(declare-const symbol_536 (_ BitVec 32))
(declare-const symbol_476 (_ BitVec 32))
(declare-const symbol_466 (_ BitVec 32))
(declare-const symbol_419 (_ BitVec 32))
(declare-const symbol_703 (_ BitVec 32))
(declare-const symbol_460 (_ BitVec 32))
(declare-const symbol_35 (_ BitVec 32))
(declare-const symbol_701 (_ BitVec 32))
(declare-const symbol_650 (_ BitVec 32))
(declare-const symbol_298 (_ BitVec 32))
(declare-const symbol_672 (_ BitVec 32))
(declare-const symbol_614 (_ BitVec 32))
(declare-const symbol_456 (_ BitVec 32))
(declare-const symbol_271 (_ BitVec 32))
(declare-const symbol_401 (_ BitVec 32))
(declare-const symbol_17 (_ BitVec 32))
(declare-const symbol_574 (_ BitVec 32))
(declare-const symbol_432 (_ BitVec 32))
(declare-const symbol_503 (_ BitVec 32))
(declare-const symbol_717 (_ BitVec 32))
(declare-const symbol_634 (_ BitVec 32))
(declare-const symbol_611 (_ BitVec 32))
(declare-const symbol_243 (_ BitVec 32))
(declare-const symbol_488 (_ BitVec 32))
(declare-const symbol_421 (_ BitVec 32))
(declare-const symbol_77 (_ BitVec 32))
(declare-const symbol_60 (_ BitVec 32))
(declare-const symbol_205 (_ BitVec 32))
(declare-const symbol_735 (_ BitVec 32))
(declare-const symbol_628 (_ BitVec 32))
(declare-const symbol_664 (_ BitVec 32))
(declare-const symbol_184 (_ BitVec 32))
(declare-const symbol_166 (_ BitVec 32))
(declare-const symbol_564 (_ BitVec 32))
(declare-const symbol_528 (_ BitVec 32))
(declare-const symbol_229 (_ BitVec 32))
(declare-const symbol_660 (_ BitVec 32))
(declare-const symbol_405 (_ BitVec 32))
(declare-const symbol_713 (_ BitVec 32))
(declare-const symbol_711 (_ BitVec 32))
(declare-const symbol_540 (_ BitVec 32))
(declare-const symbol_375 (_ BitVec 32))
(declare-const symbol_288 (_ BitVec 32))
(declare-const symbol_117 (_ BitVec 32))
(declare-const symbol_46 (_ BitVec 32))
(declare-const symbol_693 (_ BitVec 32))
(declare-const symbol_440 (_ BitVec 32))
(declare-const symbol_385 (_ BitVec 32))
(declare-const symbol_580 (_ BitVec 32))
(declare-const symbol_517 (_ BitVec 32))
(declare-const symbol_556 (_ BitVec 32))
(declare-const symbol_79 (_ BitVec 32))
(declare-const symbol_403 (_ BitVec 32))
(declare-const symbol_322 (_ BitVec 32))
(declare-const symbol_233 (_ BitVec 32))
(declare-const symbol_609 (_ BitVec 32))
(declare-const symbol_80 (_ BitVec 32))
(declare-const symbol_336 (_ BitVec 32))
(declare-const symbol_328 (_ BitVec 32))
(declare-const symbol_50 (_ BitVec 32))
(declare-const symbol_589 (_ BitVec 32))
(declare-const symbol_542 (_ BitVec 32))
(declare-const symbol_344 (_ BitVec 32))
(declare-const symbol_654 (_ BitVec 32))
(declare-const symbol_558 (_ BitVec 32))
(declare-const symbol_526 (_ BitVec 32))
(declare-const symbol_318 (_ BitVec 32))
(declare-const symbol_21 (_ BitVec 32))
(declare-const symbol_19 (_ BitVec 32))
(declare-const symbol_43 (_ BitVec 32))
(declare-const symbol_218 (_ BitVec 32))
(declare-const symbol_93 (_ BitVec 32))
(declare-const symbol_342 (_ BitVec 32))
(declare-const symbol_31 (_ BitVec 32))
(declare-const symbol_239 (_ BitVec 32))
(declare-const symbol_7 (_ BitVec 32))
(declare-const symbol_670 (_ BitVec 32))
(declare-const symbol_601 (_ BitVec 32))
(declare-const symbol_587 (_ BitVec 32))
(declare-const symbol_320 (_ BitVec 32))
(declare-const symbol_212 (_ BitVec 32))
(declare-const symbol_208 (_ BitVec 32))
(declare-const symbol_362 (_ BitVec 32))
(declare-const symbol_678 (_ BitVec 32))
(declare-const symbol_595 (_ BitVec 32))
(declare-const symbol_159 (_ BitVec 32))
(declare-const symbol_709 (_ BitVec 32))
(declare-const symbol_290 (_ BitVec 32))
(declare-const symbol_119 (_ BitVec 32))
(declare-const symbol_360 (_ BitVec 32))
(declare-const symbol_515 (_ BitVec 32))
(declare-const symbol_434 (_ BitVec 32))
(declare-const symbol_379 (_ BitVec 32))
(declare-const symbol_155 (_ BitVec 32))
(declare-const symbol_68 (_ BitVec 32))
(declare-const symbol_150 (_ BitVec 32))
(declare-const symbol_260 (_ BitVec 32))
(declare-const symbol_330 (_ BitVec 32))
(declare-const symbol_294 (_ BitVec 32))
(declare-const symbol_144 (_ BitVec 32))
(declare-const symbol_27 (_ BitVec 32))
(declare-const symbol_283 (_ BitVec 32))
(declare-const symbol_383 (_ BitVec 32))
(declare-const symbol_522 (_ BitVec 32))
(declare-const symbol_252 (_ BitVec 32))
(declare-const symbol_33 (_ BitVec 32))
(declare-const symbol_45 (_ BitVec 32))
(declare-const symbol_164 (_ BitVec 32))
(declare-const symbol_132 (_ BitVec 32))
(declare-const symbol_113 (_ BitVec 32))
(declare-const symbol_334 (_ BitVec 32))
(declare-const symbol_182 (_ BitVec 32))
(declare-const symbol_622 (_ BitVec 32))
(declare-const symbol_699 (_ BitVec 32))
(declare-const symbol_644 (_ BitVec 32))
(declare-const symbol_409 (_ BitVec 32))
(declare-const symbol_157 (_ BitVec 32))
(declare-const symbol_168 (_ BitVec 32))
(declare-const symbol_658 (_ BitVec 32))
(declare-const symbol_618 (_ BitVec 32))
(declare-const symbol_172 (_ BitVec 32))
(declare-const symbol_532 (_ BitVec 32))
(declare-const symbol_75 (_ BitVec 32))
(declare-const symbol_511 (_ BitVec 32))
(declare-const symbol_411 (_ BitVec 32))
(declare-const symbol_674 (_ BitVec 32))
(declare-const symbol_249 (_ BitVec 32))
(declare-const symbol_0 (_ BitVec 32))
(declare-const symbol_452 (_ BitVec 32))
(declare-const symbol_82 (_ BitVec 32))
(declare-const symbol_638 (_ BitVec 32))
(declare-const symbol_626 (_ BitVec 32))
(declare-const symbol_188 (_ BitVec 32))
(declare-const symbol_36 (_ BitVec 32))
(declare-const symbol_64 (_ BitVec 32))
(declare-const symbol_501 (_ BitVec 32))
(declare-const symbol_509 (_ BitVec 32))
(declare-const symbol_581 (_ BitVec 32))
(declare-const symbol_38 (_ BitVec 32))
(declare-const symbol_464 (_ BitVec 32))
(declare-const symbol_262 (_ BitVec 32))
(declare-const symbol_105 (_ BitVec 32))
(declare-const symbol_572 (_ BitVec 32))
(declare-const symbol_207 (_ BitVec 32))
(declare-const symbol_41 (_ BitVec 32))
(declare-const symbol_686 (_ BitVec 32))
(declare-const symbol_497 (_ BitVec 32))
(declare-const symbol_690 (_ BitVec 32))
(declare-const symbol_308 (_ BitVec 32))
(declare-const symbol_668 (_ BitVec 32))
(declare-const symbol_430 (_ BitVec 32))
(declare-const symbol_275 (_ BitVec 32))
(declare-const symbol_246 (_ BitVec 32))
(declare-const symbol_364 (_ BitVec 32))
(declare-const symbol_534 (_ BitVec 32))
(declare-const symbol_397 (_ BitVec 32))
(declare-const symbol_190 (_ BitVec 32))
(declare-const symbol_99 (_ BitVec 32))
(declare-const symbol_642 (_ BitVec 32))
(declare-const symbol_495 (_ BitVec 32))
(declare-const symbol_107 (_ BitVec 32))
(declare-const symbol_695 (_ BitVec 32))
(declare-const symbol_292 (_ BitVec 32))
(declare-const symbol_256 (_ BitVec 32))
(declare-const symbol_389 (_ BitVec 32))
(declare-const symbol_186 (_ BitVec 32))
(declare-const symbol_121 (_ BitVec 32))
(declare-const symbol_630 (_ BitVec 32))
(declare-const symbol_552 (_ BitVec 32))
(declare-const symbol_279 (_ BitVec 32))
(declare-const symbol_56 (_ BitVec 32))
(declare-const symbol_680 (_ BitVec 32))
(declare-const symbol_492 (_ BitVec 32))
(declare-const symbol_146 (_ BitVec 32))
(declare-const symbol_332 (_ BitVec 32))
(declare-const symbol_417 (_ BitVec 32))
(declare-const symbol_607 (_ BitVec 32))
(declare-const symbol_214 (_ BitVec 32))
(declare-const symbol_519 (_ BitVec 32))
(declare-const symbol_355 (_ BitVec 32))
(declare-const symbol_351 (_ BitVec 32))
(assert (= symbol_737 (_ bv5 32)))
(assert (not (not (= symbol_737 (_ bv13 32)))))
(assert (not (not (= symbol_735 (_ bv13 32)))))
(assert (not (not (= symbol_733 (_ bv13 32)))))
(assert (not (not (= symbol_731 (_ bv13 32)))))
(assert (not (not (= symbol_729 (_ bv13 32)))))
(assert (not (not (= symbol_727 (_ bv13 32)))))
(assert (not (not (= symbol_725 (_ bv13 32)))))
(assert (not (not (= symbol_723 (_ bv13 32)))))
(assert (not (not (= symbol_721 (_ bv13 32)))))
(assert (not (not (= symbol_719 (_ bv13 32)))))
(assert (not (not (= symbol_717 (_ bv13 32)))))
(assert (not (not (= symbol_715 (_ bv13 32)))))
(assert (not (not (= symbol_713 (_ bv13 32)))))
(assert (not (not (= symbol_711 (_ bv13 32)))))
(assert (not (not (= symbol_709 (_ bv13 32)))))
(assert (not (not (= symbol_707 (_ bv13 32)))))
(assert (not (not (= symbol_705 (_ bv13 32)))))
(assert (not (not (= symbol_703 (_ bv13 32)))))
(assert (not (not (= symbol_701 (_ bv13 32)))))
(assert (not (not (= symbol_699 (_ bv13 32)))))
(assert (not (not (= symbol_697 (_ bv13 32)))))
(assert (not (not (= symbol_695 (_ bv13 32)))))
(assert (not (not (= symbol_693 (_ bv13 32)))))
(assert (not (not (= symbol_692 (_ bv13 32)))))
(assert (not (not (= symbol_690 (_ bv13 32)))))
(assert (not (not (= symbol_688 (_ bv13 32)))))
(assert (not (not (= symbol_686 (_ bv13 32)))))
(assert (not (not (= symbol_684 (_ bv13 32)))))
(assert (not (not (= symbol_682 (_ bv13 32)))))
(assert (not (not (= symbol_680 (_ bv13 32)))))
(assert (not (not (= symbol_678 (_ bv13 32)))))
(assert (not (not (= symbol_676 (_ bv13 32)))))
(assert (not (not (= symbol_674 (_ bv13 32)))))
(assert (not (not (= symbol_672 (_ bv13 32)))))
(assert (not (not (= symbol_670 (_ bv13 32)))))
(assert (not (not (= symbol_668 (_ bv13 32)))))
(assert (not (not (= symbol_666 (_ bv13 32)))))
(assert (not (not (= symbol_664 (_ bv13 32)))))
(assert (not (not (= symbol_662 (_ bv13 32)))))
(assert (not (not (= symbol_660 (_ bv13 32)))))
(assert (not (not (= symbol_658 (_ bv13 32)))))
(assert (not (not (= symbol_656 (_ bv13 32)))))
(assert (not (not (= symbol_654 (_ bv13 32)))))
(assert (not (not (= symbol_652 (_ bv13 32)))))
(assert (not (not (= symbol_650 (_ bv13 32)))))
(assert (not (not (= symbol_648 (_ bv13 32)))))
(assert (not (not (= symbol_646 (_ bv13 32)))))
(assert (not (not (= symbol_644 (_ bv13 32)))))
(assert (not (not (= symbol_642 (_ bv13 32)))))
(assert (not (not (= symbol_640 (_ bv13 32)))))
(assert (not (not (= symbol_638 (_ bv13 32)))))
(assert (not (not (= symbol_636 (_ bv13 32)))))
(assert (not (not (= symbol_634 (_ bv13 32)))))
(assert (not (not (= symbol_632 (_ bv13 32)))))
(assert (not (not (= symbol_630 (_ bv13 32)))))
(assert (not (not (= symbol_628 (_ bv13 32)))))
(assert (not (not (= symbol_626 (_ bv13 32)))))
(assert (not (not (= symbol_624 (_ bv13 32)))))
(assert (not (not (= symbol_622 (_ bv13 32)))))
(assert (not (not (= symbol_620 (_ bv13 32)))))
(assert (not (not (= symbol_618 (_ bv13 32)))))
(assert (not (not (= symbol_616 (_ bv13 32)))))
(assert (not (not (= symbol_614 (_ bv13 32)))))
(assert (not (not (= symbol_611 (_ bv13 32)))))
(assert (not (not (= symbol_609 (_ bv13 32)))))
(assert (not (not (= symbol_607 (_ bv13 32)))))
(assert (not (not (= symbol_605 (_ bv13 32)))))
(assert (not (not (= symbol_603 (_ bv13 32)))))
(assert (not (not (= symbol_601 (_ bv13 32)))))
(assert (not (not (= symbol_599 (_ bv13 32)))))
(assert (not (not (= symbol_597 (_ bv13 32)))))
(assert (not (not (= symbol_595 (_ bv13 32)))))
(assert (not (not (= symbol_593 (_ bv13 32)))))
(assert (not (not (= symbol_591 (_ bv13 32)))))
(assert (not (not (= symbol_589 (_ bv13 32)))))
(assert (not (not (= symbol_587 (_ bv13 32)))))
(assert (not (not (= symbol_585 (_ bv13 32)))))
(assert (not (not (= symbol_583 (_ bv13 32)))))
(assert (not (not (= symbol_581 (_ bv13 32)))))
(assert (not (not (= symbol_580 (_ bv13 32)))))
(assert (not (not (= symbol_578 (_ bv13 32)))))
(assert (not (not (= symbol_576 (_ bv13 32)))))
(assert (not (not (= symbol_574 (_ bv13 32)))))
(assert (not (not (= symbol_572 (_ bv13 32)))))
(assert (not (not (= symbol_570 (_ bv13 32)))))
(assert (not (not (= symbol_568 (_ bv13 32)))))
(assert (not (not (= symbol_566 (_ bv13 32)))))
(assert (not (not (= symbol_564 (_ bv13 32)))))
(assert (not (not (= symbol_562 (_ bv13 32)))))
(assert (not (not (= symbol_560 (_ bv13 32)))))
(assert (not (not (= symbol_558 (_ bv13 32)))))
(assert (not (not (= symbol_556 (_ bv13 32)))))
(assert (not (not (= symbol_554 (_ bv13 32)))))
(assert (not (not (= symbol_552 (_ bv13 32)))))
(assert (not (not (= symbol_550 (_ bv13 32)))))
(assert (not (not (= symbol_548 (_ bv13 32)))))
(assert (not (not (= symbol_546 (_ bv13 32)))))
(assert (not (not (= symbol_544 (_ bv13 32)))))
(assert (not (not (= symbol_542 (_ bv13 32)))))
(assert (not (not (= symbol_540 (_ bv13 32)))))
(assert (not (not (= symbol_538 (_ bv13 32)))))
(assert (not (not (= symbol_536 (_ bv13 32)))))
(assert (not (not (= symbol_534 (_ bv13 32)))))
(assert (not (not (= symbol_532 (_ bv13 32)))))
(assert (not (not (= symbol_530 (_ bv13 32)))))
(assert (not (not (= symbol_528 (_ bv13 32)))))
(assert (not (not (= symbol_526 (_ bv13 32)))))
(assert (not (not (= symbol_524 (_ bv13 32)))))
(assert (not (not (= symbol_522 (_ bv13 32)))))
(assert (not (not (= symbol_519 (_ bv13 32)))))
(assert (not (not (= symbol_517 (_ bv13 32)))))
(assert (not (not (= symbol_515 (_ bv13 32)))))
(assert (not (not (= symbol_513 (_ bv13 32)))))
(assert (not (not (= symbol_511 (_ bv13 32)))))
(assert (not (not (= symbol_509 (_ bv13 32)))))
(assert (not (not (= symbol_507 (_ bv13 32)))))
(assert (not (not (= symbol_505 (_ bv13 32)))))
(assert (not (not (= symbol_503 (_ bv13 32)))))
(assert (not (not (= symbol_501 (_ bv13 32)))))
(assert (not (not (= symbol_499 (_ bv13 32)))))
(assert (not (not (= symbol_497 (_ bv13 32)))))
(assert (not (not (= symbol_495 (_ bv13 32)))))
(assert (not (not (= symbol_492 (_ bv13 32)))))
(assert (not (not (= symbol_490 (_ bv13 32)))))
(assert (not (not (= symbol_488 (_ bv13 32)))))
(assert (not (not (= symbol_486 (_ bv13 32)))))
(assert (not (not (= symbol_484 (_ bv13 32)))))
(assert (not (not (= symbol_482 (_ bv13 32)))))
(assert (not (not (= symbol_480 (_ bv13 32)))))
(assert (not (not (= symbol_478 (_ bv13 32)))))
(assert (not (not (= symbol_476 (_ bv13 32)))))
(assert (not (not (= symbol_474 (_ bv13 32)))))
(assert (not (not (= symbol_472 (_ bv13 32)))))
(assert (not (not (= symbol_470 (_ bv13 32)))))
(assert (not (not (= symbol_468 (_ bv13 32)))))
(assert (not (not (= symbol_466 (_ bv13 32)))))
(assert (not (not (= symbol_464 (_ bv13 32)))))
(assert (not (not (= symbol_462 (_ bv13 32)))))
(assert (not (not (= symbol_460 (_ bv13 32)))))
(assert (not (not (= symbol_458 (_ bv13 32)))))
(assert (not (not (= symbol_456 (_ bv13 32)))))
(assert (not (not (= symbol_454 (_ bv13 32)))))
(assert (not (not (= symbol_452 (_ bv13 32)))))
(assert (not (not (= symbol_450 (_ bv13 32)))))
(assert (not (not (= symbol_448 (_ bv13 32)))))
(assert (not (not (= symbol_446 (_ bv13 32)))))
(assert (not (not (= symbol_444 (_ bv13 32)))))
(assert (not (not (= symbol_442 (_ bv13 32)))))
(assert (not (not (= symbol_440 (_ bv13 32)))))
(assert (not (not (= symbol_438 (_ bv13 32)))))
(assert (not (not (= symbol_436 (_ bv13 32)))))
(assert (not (not (= symbol_434 (_ bv13 32)))))
(assert (not (not (= symbol_432 (_ bv13 32)))))
(assert (not (not (= symbol_430 (_ bv13 32)))))
(assert (not (not (= symbol_428 (_ bv13 32)))))
(assert (not (not (= symbol_426 (_ bv13 32)))))
(assert (not (not (= symbol_424 (_ bv13 32)))))
(assert (not (not (= symbol_421 (_ bv13 32)))))
(assert (not (not (= symbol_419 (_ bv13 32)))))
(assert (not (not (= symbol_417 (_ bv13 32)))))
(assert (not (not (= symbol_415 (_ bv13 32)))))
(assert (not (not (= symbol_413 (_ bv13 32)))))
(assert (not (not (= symbol_411 (_ bv13 32)))))
(assert (not (not (= symbol_409 (_ bv13 32)))))
(assert (not (not (= symbol_407 (_ bv13 32)))))
(assert (not (not (= symbol_405 (_ bv13 32)))))
(assert (not (not (= symbol_403 (_ bv13 32)))))
(assert (not (not (= symbol_401 (_ bv13 32)))))
(assert (not (not (= symbol_399 (_ bv13 32)))))
(assert (not (not (= symbol_397 (_ bv13 32)))))
(assert (not (not (= symbol_395 (_ bv13 32)))))
(assert (not (not (= symbol_393 (_ bv13 32)))))
(assert (not (not (= symbol_391 (_ bv13 32)))))
(assert (not (not (= symbol_389 (_ bv13 32)))))
(assert (not (not (= symbol_387 (_ bv13 32)))))
(assert (not (not (= symbol_385 (_ bv13 32)))))
(assert (not (not (= symbol_383 (_ bv13 32)))))
(assert (not (not (= symbol_381 (_ bv13 32)))))
(assert (not (not (= symbol_379 (_ bv13 32)))))
(assert (not (not (= symbol_377 (_ bv13 32)))))
(assert (not (not (= symbol_375 (_ bv13 32)))))
(assert (not (not (= symbol_373 (_ bv13 32)))))
(assert (not (not (= symbol_371 (_ bv13 32)))))
(assert (not (not (= symbol_368 (_ bv13 32)))))
(assert (not (not (= symbol_366 (_ bv13 32)))))
(assert (not (not (= symbol_364 (_ bv13 32)))))
(assert (not (not (= symbol_362 (_ bv13 32)))))
(assert (not (not (= symbol_360 (_ bv13 32)))))
(assert (not (not (= symbol_357 (_ bv13 32)))))
(assert (not (not (= symbol_355 (_ bv13 32)))))
(assert (not (not (= symbol_353 (_ bv13 32)))))
(assert (not (not (= symbol_351 (_ bv13 32)))))
(assert (not (not (= symbol_349 (_ bv13 32)))))
(assert (not (not (= symbol_347 (_ bv13 32)))))
(assert (not (not (= symbol_344 (_ bv13 32)))))
(assert (not (not (= symbol_342 (_ bv13 32)))))
(assert (not (not (= symbol_340 (_ bv13 32)))))
(assert (not (not (= symbol_338 (_ bv13 32)))))
(assert (not (not (= symbol_336 (_ bv13 32)))))
(assert (not (not (= symbol_334 (_ bv13 32)))))
(assert (not (not (= symbol_332 (_ bv13 32)))))
(assert (not (not (= symbol_330 (_ bv13 32)))))
(assert (not (not (= symbol_328 (_ bv13 32)))))
(assert (not (not (= symbol_326 (_ bv13 32)))))
(assert (not (not (= symbol_324 (_ bv13 32)))))
(assert (not (not (= symbol_322 (_ bv13 32)))))
(assert (not (not (= symbol_320 (_ bv13 32)))))
(assert (not (not (= symbol_318 (_ bv13 32)))))
(assert (not (not (= symbol_316 (_ bv13 32)))))
(assert (not (not (= symbol_314 (_ bv13 32)))))
(assert (not (not (= symbol_312 (_ bv13 32)))))
(assert (not (not (= symbol_310 (_ bv13 32)))))
(assert (not (not (= symbol_308 (_ bv13 32)))))
(assert (not (not (= symbol_306 (_ bv13 32)))))
(assert (not (not (= symbol_304 (_ bv13 32)))))
(assert (not (not (= symbol_302 (_ bv13 32)))))
(assert (not (not (= symbol_299 (_ bv13 32)))))
(assert (not (not (= symbol_298 (_ bv13 32)))))
(assert (not (not (= symbol_296 (_ bv13 32)))))
(assert (not (not (= symbol_294 (_ bv13 32)))))
(assert (not (not (= symbol_292 (_ bv13 32)))))
(assert (not (not (= symbol_290 (_ bv13 32)))))
(assert (not (not (= symbol_288 (_ bv13 32)))))
(assert (not (not (= symbol_286 (_ bv13 32)))))
(assert (not (not (= symbol_285 (_ bv13 32)))))
(assert (not (not (= symbol_283 (_ bv13 32)))))
(assert (not (not (= symbol_281 (_ bv13 32)))))
(assert (not (not (= symbol_279 (_ bv13 32)))))
(assert (not (not (= symbol_277 (_ bv13 32)))))
(assert (not (not (= symbol_275 (_ bv13 32)))))
(assert (not (not (= symbol_274 (_ bv13 32)))))
(assert (not (not (= symbol_272 (_ bv13 32)))))
(assert (not (not (= symbol_271 (_ bv13 32)))))
(assert (not (not (= symbol_269 (_ bv13 32)))))
(assert (not (not (= symbol_267 (_ bv13 32)))))
(assert (not (not (= symbol_265 (_ bv13 32)))))
(assert (not (not (= symbol_264 (_ bv13 32)))))
(assert (not (not (= symbol_262 (_ bv13 32)))))
(assert (not (not (= symbol_260 (_ bv13 32)))))
(assert (not (not (= symbol_258 (_ bv13 32)))))
(assert (not (not (= symbol_256 (_ bv13 32)))))
(assert (not (not (= symbol_254 (_ bv13 32)))))
(assert (not (not (= symbol_252 (_ bv13 32)))))
(assert (not (not (= symbol_249 (_ bv13 32)))))
(assert (not (not (= symbol_247 (_ bv13 32)))))
(assert (not (not (= symbol_246 (_ bv13 32)))))
(assert (not (not (= symbol_243 (_ bv13 32)))))
(assert (not (not (= symbol_241 (_ bv13 32)))))
(assert (not (not (= symbol_239 (_ bv13 32)))))
(assert (not (not (= symbol_237 (_ bv13 32)))))
(assert (not (not (= symbol_235 (_ bv13 32)))))
(assert (not (not (= symbol_233 (_ bv13 32)))))
(assert (not (not (= symbol_231 (_ bv13 32)))))
(assert (not (not (= symbol_229 (_ bv13 32)))))
(assert (not (not (= symbol_227 (_ bv13 32)))))
(assert (not (not (= symbol_224 (_ bv13 32)))))
(assert (not (not (= symbol_222 (_ bv13 32)))))
(assert (not (not (= symbol_220 (_ bv13 32)))))
(assert (not (not (= symbol_218 (_ bv13 32)))))
(assert (not (not (= symbol_216 (_ bv13 32)))))
(assert (not (not (= symbol_214 (_ bv13 32)))))
(assert (not (not (= symbol_212 (_ bv13 32)))))
(assert (not (not (= symbol_210 (_ bv13 32)))))
(assert (not (not (= symbol_208 (_ bv13 32)))))
(assert (not (not (= symbol_207 (_ bv13 32)))))
(assert (not (not (= symbol_205 (_ bv13 32)))))
(assert (not (not (= symbol_203 (_ bv13 32)))))
(assert (not (not (= symbol_201 (_ bv13 32)))))
(assert (not (not (= symbol_198 (_ bv13 32)))))
(assert (not (not (= symbol_196 (_ bv13 32)))))
(assert (not (not (= symbol_194 (_ bv13 32)))))
(assert (not (not (= symbol_192 (_ bv13 32)))))
(assert (not (not (= symbol_190 (_ bv13 32)))))
(assert (not (not (= symbol_188 (_ bv13 32)))))
(assert (not (not (= symbol_186 (_ bv13 32)))))
(assert (not (not (= symbol_184 (_ bv13 32)))))
(assert (not (not (= symbol_182 (_ bv13 32)))))
(assert (not (not (= symbol_180 (_ bv13 32)))))
(assert (not (not (= symbol_178 (_ bv13 32)))))
(assert (not (not (= symbol_176 (_ bv13 32)))))
(assert (not (not (= symbol_174 (_ bv13 32)))))
(assert (not (not (= symbol_172 (_ bv13 32)))))
(assert (not (not (= symbol_170 (_ bv13 32)))))
(assert (not (not (= symbol_168 (_ bv13 32)))))
(assert (not (not (= symbol_166 (_ bv13 32)))))
(assert (not (not (= symbol_164 (_ bv13 32)))))
(assert (not (not (= symbol_162 (_ bv13 32)))))
(assert (not (not (= symbol_159 (_ bv13 32)))))
(assert (not (not (= symbol_157 (_ bv13 32)))))
(assert (not (not (= symbol_155 (_ bv13 32)))))
(assert (not (not (= symbol_154 (_ bv13 32)))))
(assert (not (not (= symbol_152 (_ bv13 32)))))
(assert (not (not (= symbol_150 (_ bv13 32)))))
(assert (not (not (= symbol_148 (_ bv13 32)))))
(assert (not (not (= symbol_146 (_ bv13 32)))))
(assert (not (not (= symbol_144 (_ bv13 32)))))
(assert (not (not (= symbol_142 (_ bv13 32)))))
(assert (not (not (= symbol_140 (_ bv13 32)))))
(assert (not (not (= symbol_139 (_ bv13 32)))))
(assert (not (not (= symbol_136 (_ bv13 32)))))
(assert (not (not (= symbol_134 (_ bv13 32)))))
(assert (not (not (= symbol_132 (_ bv13 32)))))
(assert (not (not (= symbol_131 (_ bv13 32)))))
(assert (not (not (= symbol_129 (_ bv13 32)))))
(assert (not (not (= symbol_127 (_ bv13 32)))))
(assert (not (not (= symbol_125 (_ bv13 32)))))
(assert (not (not (= symbol_123 (_ bv13 32)))))
(assert (not (not (= symbol_121 (_ bv13 32)))))
(assert (not (not (= symbol_119 (_ bv13 32)))))
(assert (not (not (= symbol_117 (_ bv13 32)))))
(assert (not (not (= symbol_115 (_ bv13 32)))))
(assert (not (not (= symbol_113 (_ bv13 32)))))
(assert (not (not (= symbol_111 (_ bv13 32)))))
(assert (not (not (= symbol_109 (_ bv13 32)))))
(assert (not (not (= symbol_107 (_ bv13 32)))))
(assert (not (not (= symbol_105 (_ bv13 32)))))
(assert (not (not (= symbol_103 (_ bv13 32)))))
(assert (not (not (= symbol_101 (_ bv13 32)))))
(assert (not (not (= symbol_99 (_ bv13 32)))))
(assert (not (not (= symbol_97 (_ bv13 32)))))
(assert (not (not (= symbol_95 (_ bv13 32)))))
(assert (not (not (= symbol_93 (_ bv13 32)))))
(assert (not (not (= symbol_91 (_ bv13 32)))))
(assert (not (not (= symbol_89 (_ bv13 32)))))
(assert (not (not (= symbol_88 (_ bv13 32)))))
(assert (not (not (= symbol_86 (_ bv13 32)))))
(assert (not (not (= symbol_84 (_ bv13 32)))))
(assert (not (not (= symbol_82 (_ bv13 32)))))
(assert (not (not (= symbol_80 (_ bv13 32)))))
(assert (not (not (= symbol_79 (_ bv13 32)))))
(assert (not (not (= symbol_77 (_ bv13 32)))))
(assert (not (not (= symbol_75 (_ bv13 32)))))
(assert (not (not (= symbol_73 (_ bv13 32)))))
(assert (not (not (= symbol_71 (_ bv13 32)))))
(assert (not (not (= symbol_70 (_ bv13 32)))))
(assert (not (not (= symbol_68 (_ bv13 32)))))
(assert (not (not (= symbol_66 (_ bv13 32)))))
(assert (not (not (= symbol_64 (_ bv13 32)))))
(assert (not (not (= symbol_62 (_ bv13 32)))))
(assert (not (not (= symbol_60 (_ bv13 32)))))
(assert (not (not (= symbol_58 (_ bv13 32)))))
(assert (not (not (= symbol_56 (_ bv13 32)))))
(assert (not (not (= symbol_54 (_ bv13 32)))))
(assert (not (not (= symbol_52 (_ bv13 32)))))
(assert (not (not (= symbol_50 (_ bv13 32)))))
(assert (not (not (= symbol_49 (_ bv13 32)))))
(assert (not (not (= symbol_46 (_ bv13 32)))))
(assert (not (not (= symbol_45 (_ bv13 32)))))
(assert (not (not (= symbol_43 (_ bv13 32)))))
(assert (not (not (= symbol_41 (_ bv13 32)))))
(assert (not (not (= symbol_38 (_ bv13 32)))))
(assert (not (not (= symbol_36 (_ bv13 32)))))
(assert (not (not (= symbol_35 (_ bv13 32)))))
(assert (not (not (= symbol_33 (_ bv13 32)))))
(assert (not (not (= symbol_31 (_ bv13 32)))))
(assert (not (not (= symbol_29 (_ bv13 32)))))
(assert (not (not (= symbol_27 (_ bv13 32)))))
(assert (not (not (= symbol_25 (_ bv13 32)))))
(assert (not (not (= symbol_23 (_ bv13 32)))))
(assert (not (not (= symbol_21 (_ bv13 32)))))
(assert (not (not (= symbol_19 (_ bv13 32)))))
(assert (not (not (= symbol_17 (_ bv13 32)))))
(assert (not (not (= symbol_16 (_ bv13 32)))))
(assert (not (not (= symbol_13 (_ bv13 32)))))
(assert (not (not (= symbol_11 (_ bv13 32)))))
(assert (not (not (= symbol_9 (_ bv13 32)))))
(assert (not (not (= symbol_7 (_ bv13 32)))))
(assert (not (not (= symbol_5 (_ bv13 32)))))
(assert (not (not (= symbol_3 (_ bv13 32)))))
(assert (not (not (= symbol_1 (_ bv13 32)))))
(assert (not (not (= symbol_0 (_ bv13 32)))))
(check-sat)